c This is the CNF input
p cnf 354 1526
-82 105 0
-83 105 0
-84 108 0
-79 105 0
-81 105 0
-80 103 0
-322 327 0
-323 327 0
-324 330 0
-319 327 0
-321 327 0
-320 325 0
-301 280 278 277 281 282 279 0
-278 304 302 301 305 306 303 0
-279 301 303 0
-303 280 278 281 282 279 0
-280 304 301 303 0
-304 280 278 282 0
-281 301 305 303 0
-305 278 281 0
-282 304 301 306 303 0
-306 278 282 0
-277 301 0
-302 278 0
-351 0
-67 76 74 73 77 78 75 0
-74 70 68 67 71 72 69 0
-75 67 69 0
-69 76 74 77 78 75 0
-76 70 67 69 0
-70 76 74 78 0
-77 67 71 69 0
-71 74 77 0
-78 70 67 72 69 0
-72 74 78 0
-73 67 0
-68 74 0
-307 256 254 253 257 258 255 0
-254 310 308 307 311 312 309 0
-255 307 309 0
-309 256 254 257 258 255 0
-256 310 307 309 0
-310 256 254 258 0
-257 307 311 309 0
-311 254 257 0
-258 310 307 312 309 0
-312 254 258 0
-253 307 0
-308 254 0
72 0
-43 133 0
-44 134 0
128 -45 135 0
-128 -45 133 0
-130 -47 135 0
-131 -47 135 0
-132 -47 137 0
-127 -47 135 0
-128 -47 133 0
-129 -47 135 0
-130 -48 135 0
-131 -48 135 0
-132 -48 138 0
-127 -48 135 0
-128 -48 133 0
-129 -48 135 0
-130 -46 136 0
-131 -46 137 0
-132 -46 136 0
-127 -46 135 0
-128 -46 133 0
-129 -46 135 0
-84 0
-303 0
-81 0
132 0
-333 0
-177 0
-289 256 254 253 257 258 255 0
-254 292 290 289 293 294 291 0
-255 289 291 0
-291 256 254 257 258 255 0
-256 292 289 291 0
-292 256 254 258 0
-257 289 293 291 0
-293 254 257 0
-258 292 289 294 291 0
-294 254 258 0
-253 289 0
-290 254 0
-345 0
162 0
338 0
-339 0
350 0
-85 109 0
-86 110 0
80 -87 111 0
-80 -87 109 0
-82 -89 111 0
-83 -89 111 0
-84 -89 113 0
-79 -89 111 0
-80 -89 109 0
-81 -89 111 0
-82 -90 111 0
-83 -90 111 0
-84 -90 114 0
-79 -90 111 0
-80 -90 109 0
-81 -90 111 0
-82 -88 112 0
-83 -88 113 0
-84 -88 112 0
-79 -88 111 0
-80 -88 109 0
-81 -88 111 0
-115 79 0
-79 115 0
-116 80 0
-80 116 0
-117 81 0
-81 117 0
-118 82 0
-82 118 0
-119 83 0
-83 119 0
-120 84 0
-84 120 0
-99 0
-93 0
-181 166 164 163 167 168 165 0
-164 184 182 181 185 186 183 0
-165 181 183 0
-183 166 164 167 168 165 0
-166 184 181 183 0
-184 166 164 168 0
-167 181 185 183 0
-185 164 167 0
-168 184 181 186 183 0
-186 164 168 0
-163 181 0
-182 164 0
-217 211 0
-211 217 0
-218 212 0
-212 218 0
-219 213 0
-213 219 0
-220 214 0
-214 220 0
-221 215 0
-215 221 0
-222 216 0
-216 222 0
-175 154 152 151 155 156 153 0
-152 178 176 175 179 180 177 0
-153 175 177 0
-177 154 152 155 156 153 0
-154 178 175 177 0
-178 154 152 156 0
-155 175 179 177 0
-179 152 155 0
-156 178 175 180 177 0
-180 152 156 0
-151 175 0
-176 152 0
-139 121 0
-121 139 0
-140 122 0
-122 140 0
-141 123 0
-123 141 0
-142 124 0
-124 142 0
-143 125 0
-125 143 0
-144 126 0
-126 144 0
-91 82 80 79 83 84 81 0
-80 94 92 91 95 96 93 0
-81 91 93 0
-93 82 80 83 84 81 0
-82 94 91 93 0
-94 82 80 84 0
-83 91 95 93 0
-95 80 83 0
-84 94 91 96 93 0
-96 80 84 0
-79 91 0
-92 80 0
-85 352 350 349 353 354 351 0
-350 88 86 85 89 90 87 0
-351 85 87 0
-87 352 350 353 354 351 0
-352 88 85 87 0
-88 352 350 354 0
-353 85 89 87 0
-89 350 353 0
-354 88 85 90 87 0
-90 350 354 0
-349 85 0
-86 350 0
-55 163 0
-56 164 0
158 -57 165 0
-158 -57 163 0
-160 -59 165 0
-161 -59 165 0
-162 -59 167 0
-157 -59 165 0
-158 -59 163 0
-159 -59 165 0
-160 -60 165 0
-161 -60 165 0
-162 -60 168 0
-157 -60 165 0
-158 -60 163 0
-159 -60 165 0
-160 -58 166 0
-161 -58 167 0
-162 -58 166 0
-157 -58 165 0
-158 -58 163 0
-159 -58 165 0
-61 169 0
-62 170 0
158 -63 171 0
-158 -63 169 0
-160 -65 171 0
-161 -65 171 0
-162 -65 173 0
-157 -65 171 0
-158 -65 169 0
-159 -65 171 0
-160 -66 171 0
-161 -66 171 0
-162 -66 174 0
-157 -66 171 0
-158 -66 169 0
-159 -66 171 0
-160 -64 172 0
-161 -64 173 0
-162 -64 172 0
-157 -64 171 0
-158 -64 169 0
-159 -64 171 0
-295 286 284 283 287 288 285 0
-284 298 296 295 299 300 297 0
-285 295 297 0
-297 286 284 287 288 285 0
-286 298 295 297 0
-298 286 284 288 0
-287 295 299 297 0
-299 284 287 0
-288 298 295 300 297 0
-300 284 288 0
-283 295 0
-296 284 0
-261 0
-61 340 338 337 341 342 339 0
-338 64 62 61 65 66 63 0
-339 61 63 0
-63 340 338 341 342 339 0
-340 64 61 63 0
-64 340 338 342 0
-341 61 65 63 0
-65 338 341 0
-342 64 61 66 63 0
-66 338 342 0
-337 61 0
-62 338 0
-319 328 326 325 329 330 327 0
-326 322 320 319 323 324 321 0
-327 319 321 0
-321 328 326 329 330 327 0
-328 322 319 321 0
-322 328 326 330 0
-329 319 323 321 0
-323 326 329 0
-330 322 319 324 321 0
-324 326 330 0
-325 319 0
-320 326 0
-237 0
-259 0
-133 124 122 121 125 126 123 0
-122 136 134 133 137 138 135 0
-123 133 135 0
-135 124 122 125 126 123 0
-124 136 133 135 0
-136 124 122 126 0
-125 133 137 135 0
-137 122 125 0
-126 136 133 138 135 0
-138 122 126 0
-121 133 0
-134 122 0
-205 214 212 211 215 216 213 0
-212 208 206 205 209 210 207 0
-213 205 207 0
-207 214 212 215 216 213 0
-214 208 205 207 0
-208 214 212 216 0
-215 205 209 207 0
-209 212 215 0
-216 208 205 210 207 0
-210 212 216 0
-211 205 0
-206 212 0
-291 0
-70 75 0
-71 75 0
-72 78 0
-67 75 0
-69 75 0
-68 73 0
-80 0
-166 183 0
-167 183 0
-168 186 0
-163 183 0
-165 183 0
-164 181 0
-241 238 236 235 239 240 237 0
-236 244 242 241 245 246 243 0
-237 241 243 0
-243 238 236 239 240 237 0
-238 244 241 243 0
-244 238 236 240 0
-239 241 245 243 0
-245 236 239 0
-240 244 241 246 243 0
-246 236 240 0
-235 241 0
-242 236 0
-235 0
-265 262 260 259 263 264 261 0
-260 268 266 265 269 270 267 0
-261 265 267 0
-267 262 260 263 264 261 0
-262 268 265 267 0
-268 262 260 264 0
-263 265 269 267 0
-269 260 263 0
-264 268 265 270 267 0
-270 260 264 0
-259 265 0
-266 260 0
-85 97 0
-97 85 0
-86 98 0
-98 86 0
-87 99 0
-99 87 0
-88 100 0
-100 88 0
-89 101 0
-101 89 0
-90 102 0
-102 90 0
-49 211 0
-50 212 0
200 -51 213 0
-200 -51 211 0
-202 -53 213 0
-203 -53 213 0
-204 -53 215 0
-199 -53 213 0
-200 -53 211 0
-201 -53 213 0
-202 -54 213 0
-203 -54 213 0
-204 -54 216 0
-199 -54 213 0
-200 -54 211 0
-201 -54 213 0
-202 -52 214 0
-203 -52 215 0
-204 -52 214 0
-199 -52 213 0
-200 -52 211 0
-201 -52 213 0
-253 235 0
-235 253 0
-254 236 0
-236 254 0
-255 237 0
-237 255 0
-256 238 0
-238 256 0
-257 239 0
-239 257 0
-258 240 0
-240 258 0
331 0
343 0
-55 91 0
-56 92 0
68 -57 93 0
-68 -57 91 0
-70 -59 93 0
-71 -59 93 0
-72 -59 95 0
-67 -59 93 0
-68 -59 91 0
-69 -59 93 0
-70 -60 93 0
-71 -60 93 0
-72 -60 96 0
-67 -60 93 0
-68 -60 91 0
-69 -60 93 0
-70 -58 94 0
-71 -58 95 0
-72 -58 94 0
-67 -58 93 0
-68 -58 91 0
-69 -58 93 0
-151 301 0
-152 302 0
254 -153 303 0
-254 -153 301 0
-256 -155 303 0
-257 -155 303 0
-258 -155 305 0
-253 -155 303 0
-254 -155 301 0
-255 -155 303 0
-256 -156 303 0
-257 -156 303 0
-258 -156 306 0
-253 -156 303 0
-254 -156 301 0
-255 -156 303 0
-256 -154 304 0
-257 -154 305 0
-258 -154 304 0
-253 -154 303 0
-254 -154 301 0
-255 -154 303 0
-61 97 0
-62 98 0
68 -63 99 0
-68 -63 97 0
-70 -65 99 0
-71 -65 99 0
-72 -65 101 0
-67 -65 99 0
-68 -65 97 0
-69 -65 99 0
-70 -66 99 0
-71 -66 99 0
-72 -66 102 0
-67 -66 99 0
-68 -66 97 0
-69 -66 99 0
-70 -64 100 0
-71 -64 101 0
-72 -64 100 0
-67 -64 99 0
-68 -64 97 0
-69 -64 99 0
-157 307 0
-158 308 0
254 -159 309 0
-254 -159 307 0
-256 -161 309 0
-257 -161 309 0
-258 -161 311 0
-253 -161 309 0
-254 -161 307 0
-255 -161 309 0
-256 -162 309 0
-257 -162 309 0
-258 -162 312 0
-253 -162 309 0
-254 -162 307 0
-255 -162 309 0
-256 -160 310 0
-257 -160 311 0
-258 -160 310 0
-253 -160 309 0
-254 -160 307 0
-255 -160 309 0
-79 0
-145 142 140 139 143 144 141 0
-140 148 146 145 149 150 147 0
-141 145 147 0
-147 142 140 143 144 141 0
-142 148 145 147 0
-148 142 140 144 0
-143 145 149 147 0
-149 140 143 0
-144 148 145 150 147 0
-150 140 144 0
-139 145 0
-146 140 0
-67 247 0
-68 248 0
236 -69 249 0
-236 -69 247 0
-238 -71 249 0
-239 -71 249 0
-240 -71 251 0
-235 -71 249 0
-236 -71 247 0
-237 -71 249 0
-238 -72 249 0
-239 -72 249 0
-240 -72 252 0
-235 -72 249 0
-236 -72 247 0
-237 -72 249 0
-238 -70 250 0
-239 -70 251 0
-240 -70 250 0
-235 -70 249 0
-236 -70 247 0
-237 -70 249 0
-67 271 0
-68 272 0
260 -69 273 0
-260 -69 271 0
-262 -71 273 0
-263 -71 273 0
-264 -71 275 0
-259 -71 273 0
-260 -71 271 0
-261 -71 273 0
-262 -72 273 0
-263 -72 273 0
-264 -72 276 0
-259 -72 273 0
-260 -72 271 0
-261 -72 273 0
-262 -70 274 0
-263 -70 275 0
-264 -70 274 0
-259 -70 273 0
-260 -70 271 0
-261 -70 273 0
-277 259 0
-259 277 0
-278 260 0
-260 278 0
-279 261 0
-261 279 0
-280 262 0
-262 280 0
-281 263 0
-263 281 0
-282 264 0
-264 282 0
-331 64 62 61 65 66 63 0
-62 334 332 331 335 336 333 0
-63 331 333 0
-333 64 62 65 66 63 0
-64 334 331 333 0
-334 64 62 66 0
-65 331 335 333 0
-335 62 65 0
-66 334 331 336 333 0
-336 62 66 0
-61 331 0
-332 62 0
198 0
-260 0
-169 175 0
-170 176 0
164 -171 177 0
-164 -171 175 0
-166 -173 177 0
-167 -173 177 0
-168 -173 179 0
-163 -173 177 0
-164 -173 175 0
-165 -173 177 0
-166 -174 177 0
-167 -174 177 0
-168 -174 180 0
-163 -174 177 0
-164 -174 175 0
-165 -174 177 0
-166 -172 178 0
-167 -172 179 0
-168 -172 178 0
-163 -172 177 0
-164 -172 175 0
-165 -172 177 0
-343 88 86 85 89 90 87 0
-86 346 344 343 347 348 345 0
-87 343 345 0
-345 88 86 89 90 87 0
-88 346 343 345 0
-346 88 86 90 0
-89 343 347 345 0
-347 86 89 0
-90 346 343 348 345 0
-348 86 90 0
-85 343 0
-344 86 0
230 0
-236 0
-240 0
-145 46 44 43 47 48 45 0
-44 148 146 145 149 150 147 0
-45 145 147 0
-147 46 44 47 48 45 0
-46 148 145 147 0
-148 46 44 48 0
-47 145 149 147 0
-149 44 47 0
-48 148 145 150 147 0
-150 44 48 0
-43 145 0
-146 44 0
-121 289 0
-122 290 0
284 -123 291 0
-284 -123 289 0
-286 -125 291 0
-287 -125 291 0
-288 -125 293 0
-283 -125 291 0
-284 -125 289 0
-285 -125 291 0
-286 -126 291 0
-287 -126 291 0
-288 -126 294 0
-283 -126 291 0
-284 -126 289 0
-285 -126 291 0
-286 -124 292 0
-287 -124 293 0
-288 -124 292 0
-283 -124 291 0
-284 -124 289 0
-285 -124 291 0
-264 0
-127 295 0
-128 296 0
284 -129 297 0
-284 -129 295 0
-286 -131 297 0
-287 -131 297 0
-288 -131 299 0
-283 -131 297 0
-284 -131 295 0
-285 -131 297 0
-286 -132 297 0
-287 -132 297 0
-288 -132 300 0
-283 -132 297 0
-284 -132 295 0
-285 -132 297 0
-286 -130 298 0
-287 -130 299 0
-288 -130 298 0
-283 -130 297 0
-284 -130 295 0
-285 -130 297 0
188 0
288 0
-43 199 0
-44 200 0
194 -45 201 0
-194 -45 199 0
-196 -47 201 0
-197 -47 201 0
-198 -47 203 0
-193 -47 201 0
-194 -47 199 0
-195 -47 201 0
-196 -48 201 0
-197 -48 201 0
-198 -48 204 0
-193 -48 201 0
-194 -48 199 0
-195 -48 201 0
-196 -46 202 0
-197 -46 203 0
-198 -46 202 0
-193 -46 201 0
-194 -46 199 0
-195 -46 201 0
-135 0
-49 223 0
-50 224 0
194 -51 225 0
-194 -51 223 0
-196 -53 225 0
-197 -53 225 0
-198 -53 227 0
-193 -53 225 0
-194 -53 223 0
-195 -53 225 0
-196 -54 225 0
-197 -54 225 0
-198 -54 228 0
-193 -54 225 0
-194 -54 223 0
-195 -54 225 0
-196 -52 226 0
-197 -52 227 0
-198 -52 226 0
-193 -52 225 0
-194 -52 223 0
-195 -52 225 0
324 0
43 44 45 46 47 48 0
-43 -44 0
-43 -45 0
-43 -46 0
-43 -47 0
-43 -48 0
-44 -45 0
-44 -46 0
-44 -47 0
-44 -48 0
-45 -46 0
-45 -47 0
-45 -48 0
-46 -47 0
-46 -48 0
-47 -48 0
49 50 51 52 53 54 0
-49 -50 0
-49 -51 0
-49 -52 0
-49 -53 0
-49 -54 0
-50 -51 0
-50 -52 0
-50 -53 0
-50 -54 0
-51 -52 0
-51 -53 0
-51 -54 0
-52 -53 0
-52 -54 0
-53 -54 0
55 56 57 58 59 60 0
-55 -56 0
-55 -57 0
-55 -58 0
-55 -59 0
-55 -60 0
-56 -57 0
-56 -58 0
-56 -59 0
-56 -60 0
-57 -58 0
-57 -59 0
-57 -60 0
-58 -59 0
-58 -60 0
-59 -60 0
61 62 63 64 65 66 0
-61 -62 0
-61 -63 0
-61 -64 0
-61 -65 0
-61 -66 0
-62 -63 0
-62 -64 0
-62 -65 0
-62 -66 0
-63 -64 0
-63 -65 0
-63 -66 0
-64 -65 0
-64 -66 0
-65 -66 0
67 68 69 70 71 72 0
-67 -68 0
-67 -69 0
-67 -70 0
-67 -71 0
-67 -72 0
-68 -69 0
-68 -70 0
-68 -71 0
-68 -72 0
-69 -70 0
-69 -71 0
-69 -72 0
-70 -71 0
-70 -72 0
-71 -72 0
73 74 75 76 77 78 0
-73 -74 0
-73 -75 0
-73 -76 0
-73 -77 0
-73 -78 0
-74 -75 0
-74 -76 0
-74 -77 0
-74 -78 0
-75 -76 0
-75 -77 0
-75 -78 0
-76 -77 0
-76 -78 0
-77 -78 0
79 80 81 82 83 84 0
-79 -80 0
-79 -81 0
-79 -82 0
-79 -83 0
-79 -84 0
-80 -81 0
-80 -82 0
-80 -83 0
-80 -84 0
-81 -82 0
-81 -83 0
-81 -84 0
-82 -83 0
-82 -84 0
-83 -84 0
85 86 87 88 89 90 0
-85 -86 0
-85 -87 0
-85 -88 0
-85 -89 0
-85 -90 0
-86 -87 0
-86 -88 0
-86 -89 0
-86 -90 0
-87 -88 0
-87 -89 0
-87 -90 0
-88 -89 0
-88 -90 0
-89 -90 0
91 92 93 94 95 96 0
-91 -92 0
-91 -93 0
-91 -94 0
-91 -95 0
-91 -96 0
-92 -93 0
-92 -94 0
-92 -95 0
-92 -96 0
-93 -94 0
-93 -95 0
-93 -96 0
-94 -95 0
-94 -96 0
-95 -96 0
97 98 99 100 101 102 0
-97 -98 0
-97 -99 0
-97 -100 0
-97 -101 0
-97 -102 0
-98 -99 0
-98 -100 0
-98 -101 0
-98 -102 0
-99 -100 0
-99 -101 0
-99 -102 0
-100 -101 0
-100 -102 0
-101 -102 0
103 104 105 106 107 108 0
-103 -104 0
-103 -105 0
-103 -106 0
-103 -107 0
-103 -108 0
-104 -105 0
-104 -106 0
-104 -107 0
-104 -108 0
-105 -106 0
-105 -107 0
-105 -108 0
-106 -107 0
-106 -108 0
-107 -108 0
109 110 111 112 113 114 0
-109 -110 0
-109 -111 0
-109 -112 0
-109 -113 0
-109 -114 0
-110 -111 0
-110 -112 0
-110 -113 0
-110 -114 0
-111 -112 0
-111 -113 0
-111 -114 0
-112 -113 0
-112 -114 0
-113 -114 0
115 116 117 118 119 120 0
-115 -116 0
-115 -117 0
-115 -118 0
-115 -119 0
-115 -120 0
-116 -117 0
-116 -118 0
-116 -119 0
-116 -120 0
-117 -118 0
-117 -119 0
-117 -120 0
-118 -119 0
-118 -120 0
-119 -120 0
121 122 123 124 125 126 0
-121 -122 0
-121 -123 0
-121 -124 0
-121 -125 0
-121 -126 0
-122 -123 0
-122 -124 0
-122 -125 0
-122 -126 0
-123 -124 0
-123 -125 0
-123 -126 0
-124 -125 0
-124 -126 0
-125 -126 0
127 128 129 130 131 132 0
-127 -128 0
-127 -129 0
-127 -130 0
-127 -131 0
-127 -132 0
-128 -129 0
-128 -130 0
-128 -131 0
-128 -132 0
-129 -130 0
-129 -131 0
-129 -132 0
-130 -131 0
-130 -132 0
-131 -132 0
133 134 135 136 137 138 0
-133 -134 0
-133 -135 0
-133 -136 0
-133 -137 0
-133 -138 0
-134 -135 0
-134 -136 0
-134 -137 0
-134 -138 0
-135 -136 0
-135 -137 0
-135 -138 0
-136 -137 0
-136 -138 0
-137 -138 0
139 140 141 142 143 144 0
-139 -140 0
-139 -141 0
-139 -142 0
-139 -143 0
-139 -144 0
-140 -141 0
-140 -142 0
-140 -143 0
-140 -144 0
-141 -142 0
-141 -143 0
-141 -144 0
-142 -143 0
-142 -144 0
-143 -144 0
145 146 147 148 149 150 0
-145 -146 0
-145 -147 0
-145 -148 0
-145 -149 0
-145 -150 0
-146 -147 0
-146 -148 0
-146 -149 0
-146 -150 0
-147 -148 0
-147 -149 0
-147 -150 0
-148 -149 0
-148 -150 0
-149 -150 0
151 152 153 154 155 156 0
-151 -152 0
-151 -153 0
-151 -154 0
-151 -155 0
-151 -156 0
-152 -153 0
-152 -154 0
-152 -155 0
-152 -156 0
-153 -154 0
-153 -155 0
-153 -156 0
-154 -155 0
-154 -156 0
-155 -156 0
157 158 159 160 161 162 0
-157 -158 0
-157 -159 0
-157 -160 0
-157 -161 0
-157 -162 0
-158 -159 0
-158 -160 0
-158 -161 0
-158 -162 0
-159 -160 0
-159 -161 0
-159 -162 0
-160 -161 0
-160 -162 0
-161 -162 0
163 164 165 166 167 168 0
-163 -164 0
-163 -165 0
-163 -166 0
-163 -167 0
-163 -168 0
-164 -165 0
-164 -166 0
-164 -167 0
-164 -168 0
-165 -166 0
-165 -167 0
-165 -168 0
-166 -167 0
-166 -168 0
-167 -168 0
169 170 171 172 173 174 0
-169 -170 0
-169 -171 0
-169 -172 0
-169 -173 0
-169 -174 0
-170 -171 0
-170 -172 0
-170 -173 0
-170 -174 0
-171 -172 0
-171 -173 0
-171 -174 0
-172 -173 0
-172 -174 0
-173 -174 0
175 176 177 178 179 180 0
-175 -176 0
-175 -177 0
-175 -178 0
-175 -179 0
-175 -180 0
-176 -177 0
-176 -178 0
-176 -179 0
-176 -180 0
-177 -178 0
-177 -179 0
-177 -180 0
-178 -179 0
-178 -180 0
-179 -180 0
181 182 183 184 185 186 0
-181 -182 0
-181 -183 0
-181 -184 0
-181 -185 0
-181 -186 0
-182 -183 0
-182 -184 0
-182 -185 0
-182 -186 0
-183 -184 0
-183 -185 0
-183 -186 0
-184 -185 0
-184 -186 0
-185 -186 0
187 188 189 190 191 192 0
-187 -188 0
-187 -189 0
-187 -190 0
-187 -191 0
-187 -192 0
-188 -189 0
-188 -190 0
-188 -191 0
-188 -192 0
-189 -190 0
-189 -191 0
-189 -192 0
-190 -191 0
-190 -192 0
-191 -192 0
193 194 195 196 197 198 0
-193 -194 0
-193 -195 0
-193 -196 0
-193 -197 0
-193 -198 0
-194 -195 0
-194 -196 0
-194 -197 0
-194 -198 0
-195 -196 0
-195 -197 0
-195 -198 0
-196 -197 0
-196 -198 0
-197 -198 0
199 200 201 202 203 204 0
-199 -200 0
-199 -201 0
-199 -202 0
-199 -203 0
-199 -204 0
-200 -201 0
-200 -202 0
-200 -203 0
-200 -204 0
-201 -202 0
-201 -203 0
-201 -204 0
-202 -203 0
-202 -204 0
-203 -204 0
205 206 207 208 209 210 0
-205 -206 0
-205 -207 0
-205 -208 0
-205 -209 0
-205 -210 0
-206 -207 0
-206 -208 0
-206 -209 0
-206 -210 0
-207 -208 0
-207 -209 0
-207 -210 0
-208 -209 0
-208 -210 0
-209 -210 0
211 212 213 214 215 216 0
-211 -212 0
-211 -213 0
-211 -214 0
-211 -215 0
-211 -216 0
-212 -213 0
-212 -214 0
-212 -215 0
-212 -216 0
-213 -214 0
-213 -215 0
-213 -216 0
-214 -215 0
-214 -216 0
-215 -216 0
217 218 219 220 221 222 0
-217 -218 0
-217 -219 0
-217 -220 0
-217 -221 0
-217 -222 0
-218 -219 0
-218 -220 0
-218 -221 0
-218 -222 0
-219 -220 0
-219 -221 0
-219 -222 0
-220 -221 0
-220 -222 0
-221 -222 0
223 224 225 226 227 228 0
-223 -224 0
-223 -225 0
-223 -226 0
-223 -227 0
-223 -228 0
-224 -225 0
-224 -226 0
-224 -227 0
-224 -228 0
-225 -226 0
-225 -227 0
-225 -228 0
-226 -227 0
-226 -228 0
-227 -228 0
229 230 231 232 233 234 0
-229 -230 0
-229 -231 0
-229 -232 0
-229 -233 0
-229 -234 0
-230 -231 0
-230 -232 0
-230 -233 0
-230 -234 0
-231 -232 0
-231 -233 0
-231 -234 0
-232 -233 0
-232 -234 0
-233 -234 0
235 236 237 238 239 240 0
-235 -236 0
-235 -237 0
-235 -238 0
-235 -239 0
-235 -240 0
-236 -237 0
-236 -238 0
-236 -239 0
-236 -240 0
-237 -238 0
-237 -239 0
-237 -240 0
-238 -239 0
-238 -240 0
-239 -240 0
241 242 243 244 245 246 0
-241 -242 0
-241 -243 0
-241 -244 0
-241 -245 0
-241 -246 0
-242 -243 0
-242 -244 0
-242 -245 0
-242 -246 0
-243 -244 0
-243 -245 0
-243 -246 0
-244 -245 0
-244 -246 0
-245 -246 0
247 248 249 250 251 252 0
-247 -248 0
-247 -249 0
-247 -250 0
-247 -251 0
-247 -252 0
-248 -249 0
-248 -250 0
-248 -251 0
-248 -252 0
-249 -250 0
-249 -251 0
-249 -252 0
-250 -251 0
-250 -252 0
-251 -252 0
253 254 255 256 257 258 0
-253 -254 0
-253 -255 0
-253 -256 0
-253 -257 0
-253 -258 0
-254 -255 0
-254 -256 0
-254 -257 0
-254 -258 0
-255 -256 0
-255 -257 0
-255 -258 0
-256 -257 0
-256 -258 0
-257 -258 0
259 260 261 262 263 264 0
-259 -260 0
-259 -261 0
-259 -262 0
-259 -263 0
-259 -264 0
-260 -261 0
-260 -262 0
-260 -263 0
-260 -264 0
-261 -262 0
-261 -263 0
-261 -264 0
-262 -263 0
-262 -264 0
-263 -264 0
265 266 267 268 269 270 0
-265 -266 0
-265 -267 0
-265 -268 0
-265 -269 0
-265 -270 0
-266 -267 0
-266 -268 0
-266 -269 0
-266 -270 0
-267 -268 0
-267 -269 0
-267 -270 0
-268 -269 0
-268 -270 0
-269 -270 0
271 272 273 274 275 276 0
-271 -272 0
-271 -273 0
-271 -274 0
-271 -275 0
-271 -276 0
-272 -273 0
-272 -274 0
-272 -275 0
-272 -276 0
-273 -274 0
-273 -275 0
-273 -276 0
-274 -275 0
-274 -276 0
-275 -276 0
277 278 279 280 281 282 0
-277 -278 0
-277 -279 0
-277 -280 0
-277 -281 0
-277 -282 0
-278 -279 0
-278 -280 0
-278 -281 0
-278 -282 0
-279 -280 0
-279 -281 0
-279 -282 0
-280 -281 0
-280 -282 0
-281 -282 0
283 284 285 286 287 288 0
-283 -284 0
-283 -285 0
-283 -286 0
-283 -287 0
-283 -288 0
-284 -285 0
-284 -286 0
-284 -287 0
-284 -288 0
-285 -286 0
-285 -287 0
-285 -288 0
-286 -287 0
-286 -288 0
-287 -288 0
289 290 291 292 293 294 0
-289 -290 0
-289 -291 0
-289 -292 0
-289 -293 0
-289 -294 0
-290 -291 0
-290 -292 0
-290 -293 0
-290 -294 0
-291 -292 0
-291 -293 0
-291 -294 0
-292 -293 0
-292 -294 0
-293 -294 0
295 296 297 298 299 300 0
-295 -296 0
-295 -297 0
-295 -298 0
-295 -299 0
-295 -300 0
-296 -297 0
-296 -298 0
-296 -299 0
-296 -300 0
-297 -298 0
-297 -299 0
-297 -300 0
-298 -299 0
-298 -300 0
-299 -300 0
301 302 303 304 305 306 0
-301 -302 0
-301 -303 0
-301 -304 0
-301 -305 0
-301 -306 0
-302 -303 0
-302 -304 0
-302 -305 0
-302 -306 0
-303 -304 0
-303 -305 0
-303 -306 0
-304 -305 0
-304 -306 0
-305 -306 0
307 308 309 310 311 312 0
-307 -308 0
-307 -309 0
-307 -310 0
-307 -311 0
-307 -312 0
-308 -309 0
-308 -310 0
-308 -311 0
-308 -312 0
-309 -310 0
-309 -311 0
-309 -312 0
-310 -311 0
-310 -312 0
-311 -312 0
319 320 321 322 323 324 0
-319 -320 0
-319 -321 0
-319 -322 0
-319 -323 0
-319 -324 0
-320 -321 0
-320 -322 0
-320 -323 0
-320 -324 0
-321 -322 0
-321 -323 0
-321 -324 0
-322 -323 0
-322 -324 0
-323 -324 0
325 326 327 328 329 330 0
-325 -326 0
-325 -327 0
-325 -328 0
-325 -329 0
-325 -330 0
-326 -327 0
-326 -328 0
-326 -329 0
-326 -330 0
-327 -328 0
-327 -329 0
-327 -330 0
-328 -329 0
-328 -330 0
-329 -330 0
331 332 333 334 335 336 0
-331 -332 0
-331 -333 0
-331 -334 0
-331 -335 0
-331 -336 0
-332 -333 0
-332 -334 0
-332 -335 0
-332 -336 0
-333 -334 0
-333 -335 0
-333 -336 0
-334 -335 0
-334 -336 0
-335 -336 0
337 338 339 340 341 342 0
-337 -338 0
-337 -339 0
-337 -340 0
-337 -341 0
-337 -342 0
-338 -339 0
-338 -340 0
-338 -341 0
-338 -342 0
-339 -340 0
-339 -341 0
-339 -342 0
-340 -341 0
-340 -342 0
-341 -342 0
343 344 345 346 347 348 0
-343 -344 0
-343 -345 0
-343 -346 0
-343 -347 0
-343 -348 0
-344 -345 0
-344 -346 0
-344 -347 0
-344 -348 0
-345 -346 0
-345 -347 0
-345 -348 0
-346 -347 0
-346 -348 0
-347 -348 0
349 350 351 352 353 354 0
-349 -350 0
-349 -351 0
-349 -352 0
-349 -353 0
-349 -354 0
-350 -351 0
-350 -352 0
-350 -353 0
-350 -354 0
-351 -352 0
-351 -353 0
-351 -354 0
-352 -353 0
-352 -354 0
-353 -354 0
